echo            both
log             log.liggghts
thermo_log      thermo.txt

atom_style      granular
atom_modify     map array
communicate     single vel yes

boundary        f f f
newton          off

units           si


region 		mybox prism  	-2 2 -2 2 -2 2  0 0 0 units box
create_box 1 mybox
create_atoms 1 single 0.02 0.0045 0
create_atoms 1 single -0.02 -0.0045 0 

set atom 1 type 1 vx -1 vy 0 vz 0 diameter 0.01 density 1000
set atom 2 type 1 vx 1 vy 0 vz 0 diameter 0.01 density 1000


neighbor        0.01 bin
neigh_modify    delay 0

soft_particles yes

# Material properties required for granular pair styles

fix        m1l all property/global youngsModuluslow peratomtype 2000  
fix 	   m1h	all property/global youngsModulushigh peratomtype 1.e9

fix m1 all property/global youngsModulus peratomtype 1.e9 

fix         m2 all property/global poissonsRatio peratomtype 0.45 
fix         m3 all property/global coefficientRestitution peratomtypepair 1 0.3 
fix         m4 all property/global coefficientFriction peratomtypepair 1 0.5 




# pair style
pair_style  gran model hertz_swelling tangential history 
pair_coeff  * *

# timestep, gravity
timestep    0.000001
#velocity all zero angular
fix         gravi all gravity 0.00 vector 0.0 0.0 1.0
 
fix Sdim all property/atom Sdim scalar yes yes no 1.

# apply nve integration to all particles that are inserted as single particles
fix     integr all nve/sphere


# screen output

compute 1 all erotate/sphere
compute 3 all temp
compute 4 all pressure 3 virial #fix
compute f all pressure 3 fix

compute 5 all stress/atom
thermo_style custom step atoms c_4[4] c_f[4] vol ke

thermo_modify lost ignore norm no
compute_modify thermo_temp dynamic yes



#fix 200 all deform 1 xy erate 10 remap v
# insert the first particles so that dump is not empty
thermo 1000

#run		0

dump dmp all custom/vtk 100 post1/Test_Liggghts*.vtk id type x y z ix iy iz vx vy vz fx fy fz omegax omegay omegaz radius tqx tqy tqz
dump dmp2 all custom 100 post1/Test*.liggghts id type x y z ix iy iz vx vy vz fx fy fz omegax omegay omegaz radius tqx tqy tqz c_5[4]

run 50000



