echo both 
log swelling3.liggghts
thermo_log thermo_swelling3.txt


read_restart restart.restart
newton off

communicate single vel yes
#processors      5 2 2


neighbor 0.1 bin 
neigh_modify delay 0 

soft_particles yes

#Required material properties 

fix         m1 all property/global youngsModulus peratomtype 1.2e3 
fix         m2 all property/global poissonsRatio peratomtype 0.45    
fix         m3 all property/global coefficientRestitution peratomtypepair 1  1 

fix         m4 all property/global coefficientFriction peratomtypepair 1 0.5
fix 	    m5 all property/global fluiddensity scalar 1.
   
fix 		m7 all property/global minSeparationDistanceRatio scalar 1.01
fix 		m8 all property/global maxSeparationDistanceRatio scalar 1.1
fix 		m9 all property/global fluidViscosity scalar 4.02e-3

fix 		m10 all property/global densityp scalar 1.2 
fix 		m11 all property/global densityf scalar 1.0 

fix 		m16 all property/global bmin scalar 0.00001
fix 		m17 all property/global bmax scalar 0.0001
#fix 		m18 all property/global shc scalar 10000

fix Temp all property/atom Temp scalar no no no 1.0 


#New pair style
pair_style gran model hertz tangential history cohesion LUBRICATION Shear_term on Squeeze_term on Pump_term on Activate_torque on flagVF off FLD off # Hertzian with lubrication.
pair_coeff  * *

timestep  1e-5


fix ywalls1 all wall/gran model hertz tangential history primitive type 1 xplane -0.1
fix ywalls2 all wall/gran model hertz tangential history primitive type 1 xplane 1.1
fix zwalls1 all wall/gran model hertz tangential history primitive type 1 yplane -0.1
fix zwalls2 all wall/gran model hertz tangential history primitive type 1 yplane 1.1
fix xwalls1 all wall/gran model hertz tangential history primitive type 1 zplane -0.1
fix xwalls2 all wall/gran model hertz tangential history primitive type 1 zplane 1.1



#fix Sdim all property/atom Sdim scalar no yes no 0.
#fix Swratio all property/atom Swratio scalar no yes no 0.
#fix iradi all property/atom iradi scalar no yes no 0. 




region      reg block -0.1 1.1 -0.1 1.1 -0.1 1.1 units box
region      bc2 block 0. 1 0. 1 0. 0.1 units box




# heat transfer
fix         ftco all property/global thermalConductivity peratomtype 0.001433076 # lambda in [cal/cm/sec/K]
fix         ftca all property/global thermalCapacity peratomtype 1.    # cp in [cal gm-1 C-1 ]
fix         heattransfer all heat/gran initial_temperature 363.
 





fix         swelling all swelling K0 0.0023 tau_ref 190. Min_temperature 333. Reference_temperature 335. 

fix     integr all nve/sphere


run 0 

#set particle temperature for  bed
set       group all property/atom Temp 363.  # This will reset the temperature 

#set particle temperature for half the bed
#region		halfbed block -0.1 1.1 -0.1 1.1 -0.1 1.1 units box 
#set             region halfbed property/atom Temp 363.

#set property/atom Temp 273.15

# screen output
compute 1 all erotate/sphere
compute 3 all temp
compute 4 all pressure 3
compute 5 all contact/atom

thermo_style custom step atoms c_4[4] vol ke
thermo 10000
thermo_modify lost ignore norm no
compute_modify thermo_temp dynamic yes









dump    dmp1 all custom/vtk 5000 post3/liggghts_part2_*.vtk id type type x y z ix iy iz vx vy vz fx fy fz omegax omegay omegaz radius c_5  f_Sdim f_Swratio f_alpha f_tdelayelapsed f_iradi mass density f_Temp

dump    dmp2 all custom 5000 post3/liggghts_*.csv id type type x y z ix iy iz vx vy vz fx fy fz omegax omegay omegaz radius c_5  f_Sdim f_Swratio f_alpha f_tdelayelapsed f_iradi mass density f_Temp
 

run 500000

write_restart restart3.restart



