##############################################################


atom_style       sphere
comm_modify mode single vel yes
newton off

boundary 		f f f
units 		si 


region 		mybox prism  	-2 2 -2 2 -2 2  0 0 0 units box
create_box 1 mybox
create_atoms 1 single 0.02 0.0045 0
create_atoms 1 single -0.02 -0.0045 0 
create_atoms 1 single -0.0 -0.02 0 



set atom 1 type 1 vx -1 vy 0 vz 0 diameter 0.01 density 1000
set atom 2 type 1 vx 1 vy 0 vz 0 diameter 0.01 density 1000
set atom 3 type 1 vx 0 vy 1 vz 0 diameter 0.01 density 1000

neighbor 0.01 bin
neigh_modify delay 0

pair_style hybrid/overlay gran/hooke/history 10000 NULL 200 NULL 0 1 lubricate/poly 50 1 0 0.0101 0.011 1 1
pair_coeff * * gran/hooke/history
pair_coeff * * lubricate/poly


timestep 0.000001 #0.000001


fix 1 all nve/sphere

#compute       attribute_atom all property/atom x vx vy fx fy

compute 1 all erotate/sphere
compute 3 all temp
compute 4 all pressure 3
thermo_style custom step atoms c_4[4] vol ke

thermo_modify lost ignore norm no
compute_modify thermo_temp dynamic yes

fix 200 all deform 1 xy erate 10 remap v
thermo 1000

run		1

dump dmp all custom 100 post/Test*.lammps id type x y z ix iy iz vx vy vz fx fy fz omegax omegay omegaz radius tqx tqy tqz
run 50000



